************************************************************************
file with basedata            : mm23_.bas
initial value random generator: 1942692585
************************************************************************
projects                      :  1
jobs (incl. supersource/sink ):  12
horizon                       :  88
RESOURCES
  - renewable                 :  2   R
  - nonrenewable              :  2   N
  - doubly constrained        :  0   D
************************************************************************
PROJECT INFORMATION:
pronr.  #jobs rel.date duedate tardcost  MPM-Time
    1     10      0       14        6       14
************************************************************************
PRECEDENCE RELATIONS:
jobnr.    #modes  #successors   successors
   0        1          3           1   2   3
   1        3          1           4
   2        3          3           8   9  10
   3        3          3           6   7  10
   4        3          2           5   9
   5        3          1           8
   6        3          1           8
   7        3          1           9
   8        3          1          11
   9        3          1          11
  10        3          1          11
  11        1          0        
************************************************************************
REQUESTS/DURATIONS:
jobnr. mode duration  R 1  R 2  R 3  R 4  E(W 1)  E(W 2)  E(W 3)
------------------------------------------------------------------------
  0      1     0       0    0    0    0     0       0       0
  1      1     2       8    0    4    6    16       8      12
  2      1     3       2    0    8   10     6      24      30
  3      1     3       2    0    5    7     6      15      21
  4      1     2       0    7    6    4    14      12       8
  5      1     1       0    9    4    5     9       4       5
  6      1     3       0    4    6    9    12      18      27
  7      1     8       0    8    8    5    64      64      40
  8      1     3       0    3   10    7     9      30      21
  9      1     3       0    2    6    5     6      18      15
 10      1     2       0    2    4    8     4       8      16
 11      1     0       0    0    0    0     0       0       0
************************************************************************
RESOURCEAVAILABILITIES:
  R 1  R 2  R 3
   27   54   59
************************************************************************
RESOURCE LIMITS:
jobnr.  l(R 1)  u(R 1)  l(R 2)  u(R 2)  l(R 3)  u(R 3)
------------------------------------------------------------------------
  0        0       0       0       0       0       0
  1        4       8       2       4       3       6
  2        1       2       4       8       5      10
  3        1       2       3       5       4       7
  4        4       7       3       6       2       4
  5        5       9       2       4       3       5
  6        2       4       3       6       5       9
  7        4       8       4       8       3       5
  8        2       3       5      10       4       7
  9        1       2       3       6       3       5
 10        1       2       2       4       4       8
 11        0       0       0       0       0       0
************************************************************************
SCENARIOS:
------------------------------------------------------------------------
RESOURCE k = 1
s = 1: (0, 18, 6, 7, 13, 10, 10, 75, 12, 6, 4, 0)
s = 2: (0, 25, 7, 4, 11, 6, 16, 75, 13, 7, 5, 0)
s = 3: (0, 22, 7, 4, 20, 7, 19, 80, 9, 5, 4, 0)
s = 4: (0, 13, 4, 5, 11, 11, 8, 70, 8, 6, 5, 0)
s = 5: (0, 13, 8, 4, 15, 12, 11, 115, 10, 4, 5, 0)
s = 6: (0, 17, 5, 8, 15, 7, 12, 101, 9, 6, 4, 0)
s = 7: (0, 16, 7, 9, 14, 12, 20, 67, 8, 9, 4, 0)
s = 8: (0, 13, 4, 9, 17, 6, 13, 37, 11, 7, 4, 0)
s = 9: (0, 16, 5, 6, 21, 6, 16, 97, 7, 7, 3, 0)
s = 10: (0, 13, 8, 7, 14, 11, 10, 60, 7, 8, 3, 0)
s = 11: (0, 14, 7, 5, 26, 10, 19, 37, 8, 5, 4, 0)
s = 12: (0, 19, 8, 5, 13, 13, 14, 52, 9, 7, 4, 0)
s = 13: (0, 21, 4, 7, 10, 6, 9, 78, 8, 6, 5, 0)
s = 14: (0, 13, 6, 9, 13, 8, 12, 36, 12, 6, 5, 0)
s = 15: (0, 19, 8, 5, 13, 14, 8, 40, 9, 7, 4, 0)
s = 16: (0, 11, 4, 8, 20, 8, 20, 48, 9, 6, 5, 0)
s = 17: (0, 14, 8, 10, 11, 8, 11, 58, 9, 7, 4, 0)
s = 18: (0, 18, 10, 8, 18, 10, 8, 61, 6, 6, 6, 0)
s = 19: (0, 13, 10, 9, 22, 12, 12, 91, 10, 8, 4, 0)
s = 20: (0, 19, 4, 6, 12, 7, 13, 47, 8, 8, 5, 0)
s = 21: (0, 20, 6, 7, 17, 14, 17, 63, 7, 9, 6, 0)
s = 22: (0, 22, 9, 5, 14, 7, 14, 72, 12, 5, 3, 0)
s = 23: (0, 24, 5, 5, 13, 10, 15, 107, 9, 4, 4, 0)
s = 24: (0, 14, 8, 8, 11, 8, 8, 82, 6, 5, 3, 0)
s = 25: (0, 16, 5, 10, 17, 8, 14, 47, 10, 6, 4, 0)
s = 26: (0, 22, 5, 8, 18, 5, 12, 49, 12, 7, 4, 0)
s = 27: (0, 15, 7, 5, 19, 10, 9, 72, 7, 5, 4, 0)
s = 28: (0, 23, 9, 5, 10, 7, 9, 57, 15, 5, 5, 0)
s = 29: (0, 19, 8, 10, 8, 11, 10, 64, 9, 7, 4, 0)
s = 30: (0, 20, 4, 5, 13, 12, 17, 64, 6, 6, 4, 0)
s = 31: (0, 29, 5, 4, 14, 10, 9, 98, 9, 7, 5, 0)
s = 32: (0, 18, 9, 5, 22, 8, 8, 66, 7, 7, 6, 0)
s = 33: (0, 18, 7, 6, 20, 12, 11, 49, 7, 6, 3, 0)
s = 34: (0, 34, 7, 5, 16, 9, 16, 61, 5, 7, 5, 0)
s = 35: (0, 12, 6, 6, 16, 10, 13, 79, 6, 4, 5, 0)
s = 36: (0, 17, 6, 7, 10, 14, 17, 73, 10, 5, 4, 0)
s = 37: (0, 18, 7, 7, 19, 5, 19, 80, 8, 4, 4, 0)
s = 38: (0, 15, 5, 9, 20, 10, 10, 45, 9, 6, 5, 0)
s = 39: (0, 14, 9, 4, 12, 12, 11, 44, 6, 5, 5, 0)
s = 40: (0, 12, 9, 7, 19, 12, 12, 40, 8, 6, 4, 0)
s = 41: (0, 11, 7, 5, 15, 9, 15, 75, 8, 6, 4, 0)
s = 42: (0, 12, 7, 9, 15, 11, 12, 87, 6, 5, 4, 0)
s = 43: (0, 19, 4, 9, 9, 8, 15, 91, 7, 9, 4, 0)
s = 44: (0, 17, 6, 4, 14, 13, 14, 74, 9, 6, 4, 0)
s = 45: (0, 21, 6, 5, 15, 6, 13, 46, 8, 10, 3, 0)
s = 46: (0, 12, 9, 4, 12, 10, 9, 58, 7, 5, 4, 0)
s = 47: (0, 23, 9, 10, 10, 12, 12, 57, 8, 6, 4, 0)
s = 48: (0, 10, 5, 4, 9, 10, 7, 74, 13, 7, 4, 0)
s = 49: (0, 18, 5, 7, 22, 7, 10, 78, 7, 8, 4, 0)
s = 50: (0, 14, 8, 5, 15, 6, 14, 87, 8, 4, 4, 0)
s = 51: (0, 11, 5, 10, 19, 9, 12, 67, 8, 5, 5, 0)
s = 52: (0, 15, 6, 8, 12, 9, 10, 78, 9, 10, 4, 0)
s = 53: (0, 20, 6, 10, 16, 12, 11, 88, 13, 6, 5, 0)
s = 54: (0, 20, 8, 10, 14, 8, 9, 83, 11, 8, 4, 0)
s = 55: (0, 13, 8, 5, 8, 7, 10, 45, 9, 5, 3, 0)
s = 56: (0, 13, 7, 4, 9, 8, 8, 44, 8, 7, 3, 0)
s = 57: (0, 14, 10, 7, 13, 15, 16, 65, 13, 4, 4, 0)
s = 58: (0, 18, 8, 6, 10, 8, 15, 86, 6, 4, 3, 0)
s = 59: (0, 20, 5, 5, 15, 13, 10, 110, 9, 7, 4, 0)
s = 60: (0, 10, 7, 6, 10, 10, 8, 76, 10, 6, 4, 0)
s = 61: (0, 18, 7, 7, 10, 10, 11, 73, 6, 8, 4, 0)
s = 62: (0, 26, 4, 4, 10, 12, 18, 90, 6, 8, 4, 0)
s = 63: (0, 11, 7, 5, 8, 12, 17, 57, 11, 7, 5, 0)
s = 64: (0, 15, 4, 8, 24, 15, 15, 48, 7, 6, 4, 0)
s = 65: (0, 13, 6, 4, 17, 6, 8, 59, 6, 7, 5, 0)
s = 66: (0, 12, 4, 7, 8, 7, 10, 78, 9, 6, 4, 0)
s = 67: (0, 17, 5, 6, 14, 11, 12, 45, 7, 8, 5, 0)
s = 68: (0, 20, 6, 6, 16, 10, 19, 61, 9, 5, 4, 0)
s = 69: (0, 15, 8, 6, 13, 13, 14, 37, 10, 5, 4, 0)
s = 70: (0, 17, 8, 7, 17, 8, 14, 44, 7, 5, 4, 0)
s = 71: (0, 16, 8, 5, 15, 9, 15, 36, 10, 7, 3, 0)
s = 72: (0, 19, 4, 8, 16, 8, 17, 79, 9, 6, 4, 0)
s = 73: (0, 16, 6, 7, 13, 13, 9, 54, 12, 6, 4, 0)
s = 74: (0, 12, 7, 7, 18, 11, 12, 53, 9, 4, 6, 0)
s = 75: (0, 19, 5, 6, 12, 9, 14, 78, 11, 9, 4, 0)
s = 76: (0, 10, 6, 5, 18, 8, 14, 39, 6, 4, 4, 0)
s = 77: (0, 19, 7, 4, 14, 11, 10, 69, 12, 8, 3, 0)
s = 78: (0, 11, 11, 6, 15, 11, 13, 40, 10, 4, 3, 0)
s = 79: (0, 23, 8, 8, 15, 8, 10, 47, 17, 9, 4, 0)
s = 80: (0, 17, 6, 9, 20, 8, 15, 60, 12, 5, 4, 0)
s = 81: (0, 19, 5, 7, 26, 13, 13, 36, 8, 6, 5, 0)
s = 82: (0, 19, 6, 8, 19, 9, 8, 65, 13, 8, 5, 0)
s = 83: (0, 11, 10, 5, 11, 8, 11, 55, 9, 6, 3, 0)
s = 84: (0, 19, 5, 8, 14, 13, 9, 38, 9, 5, 5, 0)
s = 85: (0, 13, 7, 7, 13, 6, 13, 42, 12, 4, 7, 0)
s = 86: (0, 23, 5, 6, 11, 12, 8, 47, 9, 9, 5, 0)
s = 87: (0, 25, 5, 6, 9, 6, 12, 77, 12, 9, 3, 0)
s = 88: (0, 18, 9, 4, 16, 7, 10, 69, 9, 12, 3, 0)
s = 89: (0, 13, 7, 9, 17, 9, 9, 53, 10, 8, 4, 0)
s = 90: (0, 24, 6, 6, 18, 8, 15, 93, 6, 7, 5, 0)
s = 91: (0, 12, 7, 9, 21, 9, 8, 34, 15, 6, 6, 0)
s = 92: (0, 18, 4, 6, 13, 11, 17, 106, 7, 9, 4, 0)
s = 93: (0, 13, 5, 6, 15, 13, 8, 80, 11, 4, 4, 0)
s = 94: (0, 22, 7, 4, 21, 12, 16, 44, 6, 9, 6, 0)
s = 95: (0, 21, 6, 6, 24, 8, 15, 37, 11, 4, 4, 0)
s = 96: (0, 17, 9, 7, 22, 9, 12, 59, 6, 9, 5, 0)
s = 97: (0, 13, 6, 4, 21, 8, 12, 64, 13, 6, 4, 0)
s = 98: (0, 20, 6, 7, 16, 8, 17, 51, 10, 7, 6, 0)
s = 99: (0, 19, 6, 5, 16, 6, 9, 102, 8, 4, 6, 0)
s = 100: (0, 18, 5, 6, 14, 8, 15, 64, 6, 7, 6, 0)
s = 101: (0, 11, 8, 5, 13, 6, 14, 60, 11, 7, 4, 0)
s = 102: (0, 11, 5, 6, 13, 7, 12, 70, 6, 6, 5, 0)
s = 103: (0, 12, 7, 9, 14, 6, 19, 58, 8, 6, 3, 0)
s = 104: (0, 16, 9, 7, 19, 11, 9, 47, 7, 6, 4, 0)
s = 105: (0, 26, 6, 10, 14, 8, 12, 47, 13, 6, 4, 0)
s = 106: (0, 12, 6, 12, 19, 11, 14, 68, 10, 10, 6, 0)
s = 107: (0, 18, 9, 5, 12, 7, 10, 61, 7, 9, 6, 0)
s = 108: (0, 9, 5, 7, 12, 7, 11, 68, 8, 5, 4, 0)
s = 109: (0, 21, 6, 6, 10, 6, 10, 62, 12, 5, 6, 0)
s = 110: (0, 22, 5, 5, 9, 9, 18, 75, 10, 6, 6, 0)
s = 111: (0, 17, 6, 4, 16, 11, 14, 48, 11, 5, 3, 0)
s = 112: (0, 10, 7, 9, 9, 7, 19, 74, 9, 9, 4, 0)
s = 113: (0, 12, 4, 8, 17, 9, 10, 71, 12, 6, 5, 0)
s = 114: (0, 15, 6, 8, 9, 11, 16, 69, 7, 8, 3, 0)
s = 115: (0, 28, 9, 10, 13, 10, 11, 46, 14, 5, 3, 0)
s = 116: (0, 12, 6, 9, 15, 9, 11, 56, 14, 10, 5, 0)
s = 117: (0, 10, 5, 8, 14, 13, 22, 48, 10, 4, 3, 0)
s = 118: (0, 19, 4, 6, 17, 11, 9, 50, 10, 4, 5, 0)
s = 119: (0, 18, 4, 9, 14, 6, 13, 68, 6, 5, 3, 0)
s = 120: (0, 19, 5, 8, 11, 12, 12, 43, 8, 7, 4, 0)
s = 121: (0, 18, 6, 6, 13, 8, 10, 47, 16, 9, 4, 0)
s = 122: (0, 14, 4, 6, 10, 9, 11, 50, 11, 11, 5, 0)
s = 123: (0, 19, 8, 7, 13, 12, 8, 56, 7, 4, 4, 0)
s = 124: (0, 19, 5, 4, 8, 15, 13, 60, 8, 4, 6, 0)
s = 125: (0, 11, 4, 9, 13, 8, 7, 58, 12, 9, 4, 0)
s = 126: (0, 18, 6, 6, 12, 9, 9, 78, 9, 6, 5, 0)
s = 127: (0, 9, 8, 8, 11, 13, 12, 72, 12, 8, 7, 0)
s = 128: (0, 21, 4, 7, 10, 5, 17, 54, 11, 6, 4, 0)
s = 129: (0, 20, 6, 5, 15, 6, 16, 66, 7, 6, 4, 0)
s = 130: (0, 12, 9, 4, 8, 11, 22, 74, 7, 7, 4, 0)
s = 131: (0, 17, 7, 8, 10, 7, 11, 94, 11, 9, 3, 0)
s = 132: (0, 14, 7, 6, 13, 11, 12, 34, 7, 7, 5, 0)
s = 133: (0, 21, 5, 6, 10, 7, 17, 78, 12, 6, 3, 0)
s = 134: (0, 19, 9, 5, 18, 9, 16, 49, 8, 6, 3, 0)
s = 135: (0, 17, 4, 6, 16, 12, 8, 57, 9, 6, 4, 0)
s = 136: (0, 22, 9, 6, 17, 9, 9, 60, 11, 5, 4, 0)
s = 137: (0, 14, 8, 9, 11, 15, 16, 51, 9, 6, 4, 0)
s = 138: (0, 13, 5, 4, 17, 7, 14, 48, 5, 6, 4, 0)
s = 139: (0, 16, 7, 4, 13, 8, 14, 94, 8, 7, 3, 0)
s = 140: (0, 13, 6, 7, 13, 8, 18, 43, 9, 6, 3, 0)
s = 141: (0, 22, 6, 5, 14, 10, 14, 52, 11, 5, 5, 0)
s = 142: (0, 12, 5, 6, 13, 14, 9, 55, 13, 11, 3, 0)
s = 143: (0, 13, 7, 4, 19, 17, 13, 62, 5, 4, 6, 0)
s = 144: (0, 22, 5, 6, 19, 11, 12, 48, 11, 4, 5, 0)
s = 145: (0, 18, 6, 9, 12, 7, 17, 42, 7, 4, 3, 0)
s = 146: (0, 18, 7, 5, 18, 11, 12, 61, 10, 6, 3, 0)
s = 147: (0, 17, 7, 8, 12, 9, 12, 53, 13, 5, 3, 0)
s = 148: (0, 15, 6, 7, 12, 6, 9, 40, 8, 4, 4, 0)
s = 149: (0, 11, 8, 4, 15, 8, 11, 68, 12, 8, 3, 0)
s = 150: (0, 19, 8, 5, 11, 16, 12, 89, 9, 7, 6, 0)
s = 151: (0, 18, 10, 7, 18, 7, 11, 85, 6, 8, 5, 0)
s = 152: (0, 13, 5, 4, 13, 8, 12, 51, 14, 6, 4, 0)
s = 153: (0, 11, 5, 12, 15, 10, 18, 77, 7, 8, 4, 0)
s = 154: (0, 12, 6, 5, 15, 8, 11, 44, 7, 5, 4, 0)
s = 155: (0, 11, 6, 4, 15, 6, 9, 50, 8, 6, 3, 0)
s = 156: (0, 15, 6, 10, 10, 6, 14, 85, 7, 9, 6, 0)
s = 157: (0, 17, 5, 9, 13, 10, 22, 42, 7, 6, 5, 0)
s = 158: (0, 12, 6, 8, 18, 11, 7, 66, 7, 8, 4, 0)
s = 159: (0, 11, 5, 7, 15, 8, 13, 100, 7, 8, 4, 0)
s = 160: (0, 15, 5, 4, 15, 11, 12, 78, 9, 4, 5, 0)
s = 161: (0, 13, 10, 5, 20, 8, 8, 73, 8, 7, 4, 0)
s = 162: (0, 9, 4, 6, 16, 8, 14, 40, 12, 6, 5, 0)
s = 163: (0, 16, 9, 7, 12, 10, 11, 78, 9, 6, 6, 0)
s = 164: (0, 21, 9, 4, 14, 9, 13, 57, 10, 7, 4, 0)
s = 165: (0, 21, 9, 5, 14, 13, 15, 75, 11, 6, 6, 0)
s = 166: (0, 15, 7, 6, 13, 10, 15, 79, 11, 6, 5, 0)
s = 167: (0, 15, 7, 5, 12, 9, 8, 66, 9, 5, 6, 0)
s = 168: (0, 17, 9, 7, 19, 13, 17, 60, 9, 7, 6, 0)
s = 169: (0, 25, 5, 11, 19, 12, 8, 74, 13, 8, 3, 0)
s = 170: (0, 20, 6, 7, 17, 11, 17, 59, 8, 7, 4, 0)
s = 171: (0, 20, 6, 7, 16, 14, 18, 65, 6, 6, 3, 0)
s = 172: (0, 11, 6, 8, 15, 11, 12, 100, 9, 7, 5, 0)
s = 173: (0, 23, 7, 5, 20, 6, 7, 58, 9, 5, 3, 0)
s = 174: (0, 23, 6, 9, 26, 13, 8, 44, 9, 4, 6, 0)
s = 175: (0, 13, 6, 6, 13, 10, 8, 57, 6, 5, 3, 0)
s = 176: (0, 21, 9, 7, 12, 6, 8, 70, 13, 8, 3, 0)
s = 177: (0, 13, 4, 7, 17, 6, 8, 65, 11, 5, 3, 0)
s = 178: (0, 10, 7, 7, 22, 6, 22, 85, 15, 6, 6, 0)
s = 179: (0, 23, 7, 9, 14, 13, 12, 76, 7, 6, 3, 0)
s = 180: (0, 16, 5, 10, 18, 8, 9, 75, 7, 7, 3, 0)
s = 181: (0, 14, 7, 7, 20, 20, 8, 87, 13, 12, 4, 0)
s = 182: (0, 10, 7, 5, 16, 8, 17, 72, 10, 5, 4, 0)
s = 183: (0, 12, 6, 6, 13, 12, 12, 54, 7, 5, 5, 0)
s = 184: (0, 9, 10, 7, 21, 10, 11, 108, 8, 6, 4, 0)
s = 185: (0, 17, 6, 7, 13, 11, 7, 81, 13, 5, 3, 0)
s = 186: (0, 14, 5, 7, 19, 8, 11, 56, 6, 6, 3, 0)
s = 187: (0, 25, 5, 10, 12, 10, 13, 90, 8, 4, 4, 0)
s = 188: (0, 13, 5, 7, 13, 11, 15, 64, 9, 8, 5, 0)
s = 189: (0, 10, 7, 6, 10, 7, 12, 49, 9, 8, 4, 0)
s = 190: (0, 24, 8, 4, 23, 13, 12, 57, 9, 5, 6, 0)
s = 191: (0, 17, 6, 6, 12, 13, 12, 71, 9, 10, 4, 0)
s = 192: (0, 18, 5, 5, 14, 8, 11, 60, 7, 6, 4, 0)
s = 193: (0, 17, 9, 8, 21, 9, 8, 61, 10, 11, 3, 0)
s = 194: (0, 14, 4, 4, 14, 8, 14, 52, 9, 7, 5, 0)
s = 195: (0, 18, 5, 6, 15, 9, 10, 52, 13, 6, 5, 0)
s = 196: (0, 14, 10, 6, 10, 10, 15, 81, 8, 8, 3, 0)
s = 197: (0, 18, 10, 9, 10, 12, 17, 86, 7, 7, 4, 0)
s = 198: (0, 15, 6, 6, 20, 7, 20, 61, 10, 6, 3, 0)
s = 199: (0, 16, 6, 5, 14, 10, 9, 62, 5, 5, 4, 0)
s = 200: (0, 13, 6, 6, 12, 8, 14, 48, 10, 6, 3, 0)
------------------------------------------------------------------------
RESOURCE k = 2
s = 1: (0, 9, 23, 16, 11, 5, 15, 75, 37, 17, 8, 0)
s = 2: (0, 13, 27, 10, 9, 3, 24, 75, 43, 20, 10, 0)
s = 3: (0, 11, 27, 10, 17, 3, 28, 80, 30, 15, 8, 0)
s = 4: (0, 7, 15, 13, 10, 5, 12, 70, 26, 16, 10, 0)
s = 5: (0, 7, 32, 9, 13, 6, 17, 115, 32, 10, 9, 0)
s = 6: (0, 9, 20, 18, 13, 4, 18, 101, 29, 17, 8, 0)
s = 7: (0, 8, 28, 22, 12, 6, 29, 67, 27, 26, 8, 0)
s = 8: (0, 7, 16, 23, 14, 3, 19, 37, 37, 21, 8, 0)
s = 9: (0, 8, 18, 15, 18, 3, 24, 97, 23, 21, 6, 0)
s = 10: (0, 7, 31, 17, 12, 5, 15, 60, 24, 23, 6, 0)
s = 11: (0, 7, 25, 12, 23, 5, 28, 37, 25, 13, 8, 0)
s = 12: (0, 10, 32, 12, 11, 6, 20, 52, 30, 21, 7, 0)
s = 13: (0, 11, 13, 16, 8, 3, 13, 78, 26, 17, 9, 0)
s = 14: (0, 7, 24, 21, 12, 4, 17, 36, 38, 18, 10, 0)
s = 15: (0, 10, 32, 12, 11, 6, 12, 40, 28, 21, 8, 0)
s = 16: (0, 6, 15, 19, 18, 4, 29, 48, 28, 16, 10, 0)
s = 17: (0, 7, 30, 24, 9, 4, 16, 58, 28, 21, 7, 0)
s = 18: (0, 9, 39, 20, 15, 5, 12, 61, 20, 17, 11, 0)
s = 19: (0, 7, 40, 22, 19, 5, 17, 91, 33, 24, 7, 0)
s = 20: (0, 10, 14, 13, 10, 3, 20, 47, 25, 22, 10, 0)
s = 21: (0, 10, 23, 16, 15, 6, 26, 63, 24, 25, 11, 0)
s = 22: (0, 11, 33, 11, 12, 4, 20, 72, 37, 15, 6, 0)
s = 23: (0, 12, 17, 12, 11, 5, 22, 107, 30, 11, 8, 0)
s = 24: (0, 7, 29, 18, 10, 4, 12, 82, 20, 13, 5, 0)
s = 25: (0, 8, 20, 25, 14, 4, 20, 47, 32, 17, 8, 0)
s = 26: (0, 11, 17, 20, 15, 3, 18, 49, 40, 20, 7, 0)
s = 27: (0, 8, 25, 12, 16, 5, 13, 72, 23, 15, 8, 0)
s = 28: (0, 12, 33, 12, 9, 4, 14, 57, 49, 14, 10, 0)
s = 29: (0, 10, 30, 25, 7, 5, 15, 64, 28, 20, 8, 0)
s = 30: (0, 10, 15, 12, 12, 6, 25, 64, 18, 16, 8, 0)
s = 31: (0, 15, 19, 10, 12, 5, 13, 98, 28, 21, 9, 0)
s = 32: (0, 9, 33, 12, 19, 4, 11, 66, 23, 19, 11, 0)
s = 33: (0, 9, 25, 13, 17, 5, 17, 49, 22, 16, 5, 0)
s = 34: (0, 17, 25, 11, 14, 4, 23, 61, 16, 20, 9, 0)
s = 35: (0, 6, 21, 13, 14, 5, 19, 79, 18, 11, 9, 0)
s = 36: (0, 9, 22, 16, 9, 7, 25, 73, 33, 15, 7, 0)
s = 37: (0, 9, 27, 16, 16, 3, 28, 80, 24, 12, 8, 0)
s = 38: (0, 8, 17, 23, 17, 5, 15, 45, 30, 16, 10, 0)
s = 39: (0, 7, 33, 9, 11, 6, 17, 44, 19, 14, 9, 0)
s = 40: (0, 6, 35, 18, 16, 6, 17, 40, 26, 18, 8, 0)
s = 41: (0, 6, 27, 12, 13, 4, 23, 75, 26, 18, 8, 0)
s = 42: (0, 6, 28, 21, 13, 5, 17, 87, 20, 13, 7, 0)
s = 43: (0, 10, 16, 21, 8, 4, 23, 91, 21, 27, 8, 0)
s = 44: (0, 9, 22, 9, 12, 6, 20, 74, 27, 16, 8, 0)
s = 45: (0, 11, 22, 11, 13, 3, 19, 46, 26, 30, 6, 0)
s = 46: (0, 6, 34, 10, 10, 5, 13, 58, 21, 15, 8, 0)
s = 47: (0, 12, 34, 24, 9, 6, 17, 57, 24, 17, 8, 0)
s = 48: (0, 5, 18, 9, 7, 5, 11, 74, 41, 19, 7, 0)
s = 49: (0, 9, 19, 17, 19, 3, 14, 78, 22, 24, 7, 0)
s = 50: (0, 7, 31, 11, 13, 3, 20, 87, 26, 12, 8, 0)
s = 51: (0, 6, 19, 23, 17, 4, 18, 67, 26, 15, 9, 0)
s = 52: (0, 8, 24, 20, 11, 4, 15, 78, 27, 28, 8, 0)
s = 53: (0, 10, 22, 24, 14, 6, 16, 88, 42, 16, 9, 0)
s = 54: (0, 10, 29, 23, 12, 4, 14, 83, 34, 23, 7, 0)
s = 55: (0, 7, 30, 12, 7, 3, 15, 45, 28, 15, 6, 0)
s = 56: (0, 7, 26, 9, 8, 4, 11, 44, 24, 20, 6, 0)
s = 57: (0, 7, 37, 18, 11, 7, 23, 65, 41, 11, 7, 0)
s = 58: (0, 9, 32, 13, 9, 4, 23, 86, 18, 12, 6, 0)
s = 59: (0, 10, 19, 12, 13, 6, 15, 110, 28, 20, 7, 0)
s = 60: (0, 5, 27, 15, 9, 5, 12, 76, 32, 16, 7, 0)
s = 61: (0, 9, 25, 16, 9, 5, 17, 73, 18, 24, 7, 0)
s = 62: (0, 13, 14, 10, 9, 6, 27, 90, 19, 23, 7, 0)
s = 63: (0, 6, 28, 12, 7, 5, 25, 57, 34, 20, 10, 0)
s = 64: (0, 8, 15, 19, 20, 7, 22, 48, 21, 16, 8, 0)
s = 65: (0, 7, 23, 10, 14, 3, 12, 59, 18, 19, 9, 0)
s = 66: (0, 6, 14, 17, 7, 3, 15, 78, 28, 18, 8, 0)
s = 67: (0, 9, 19, 15, 12, 5, 18, 45, 21, 23, 9, 0)
s = 68: (0, 10, 23, 14, 14, 5, 28, 61, 29, 14, 7, 0)
s = 69: (0, 8, 30, 14, 11, 6, 20, 37, 31, 15, 7, 0)
s = 70: (0, 9, 30, 16, 14, 4, 21, 44, 23, 15, 8, 0)
s = 71: (0, 8, 30, 11, 13, 4, 23, 36, 33, 21, 6, 0)
s = 72: (0, 10, 14, 19, 13, 4, 26, 79, 30, 18, 7, 0)
s = 73: (0, 8, 21, 16, 11, 6, 14, 54, 38, 16, 8, 0)
s = 74: (0, 6, 25, 17, 15, 5, 17, 53, 30, 10, 11, 0)
s = 75: (0, 10, 19, 15, 10, 4, 21, 78, 37, 26, 8, 0)
s = 76: (0, 5, 21, 12, 15, 4, 21, 39, 20, 12, 7, 0)
s = 77: (0, 10, 27, 9, 12, 5, 14, 69, 38, 23, 6, 0)
s = 78: (0, 6, 43, 14, 13, 5, 20, 40, 33, 12, 6, 0)
s = 79: (0, 12, 30, 19, 13, 4, 15, 47, 54, 27, 8, 0)
s = 80: (0, 9, 22, 21, 17, 4, 22, 60, 39, 14, 7, 0)
s = 81: (0, 10, 17, 17, 22, 6, 20, 36, 24, 16, 10, 0)
s = 82: (0, 10, 23, 19, 16, 4, 12, 65, 42, 22, 10, 0)
s = 83: (0, 6, 40, 11, 9, 4, 16, 55, 28, 17, 6, 0)
s = 84: (0, 10, 20, 20, 12, 6, 13, 38, 30, 15, 9, 0)
s = 85: (0, 7, 28, 17, 11, 3, 20, 42, 40, 11, 13, 0)
s = 86: (0, 12, 19, 14, 10, 5, 12, 47, 30, 26, 9, 0)
s = 87: (0, 13, 19, 13, 7, 3, 18, 77, 38, 27, 5, 0)
s = 88: (0, 9, 33, 10, 14, 3, 14, 69, 30, 36, 6, 0)
s = 89: (0, 7, 27, 21, 15, 4, 13, 53, 32, 23, 8, 0)
s = 90: (0, 12, 24, 14, 16, 4, 23, 93, 20, 21, 9, 0)
s = 91: (0, 6, 28, 23, 18, 4, 12, 34, 50, 17, 12, 0)
s = 92: (0, 9, 16, 14, 11, 5, 25, 106, 22, 27, 7, 0)
s = 93: (0, 7, 18, 15, 13, 6, 12, 80, 36, 11, 7, 0)
s = 94: (0, 11, 25, 10, 18, 6, 23, 44, 20, 25, 11, 0)
s = 95: (0, 11, 22, 15, 21, 4, 23, 37, 35, 12, 8, 0)
s = 96: (0, 9, 35, 16, 19, 4, 18, 59, 20, 25, 9, 0)
s = 97: (0, 7, 21, 10, 18, 4, 18, 64, 41, 18, 7, 0)
s = 98: (0, 10, 22, 16, 14, 4, 25, 51, 32, 21, 11, 0)
s = 99: (0, 10, 23, 12, 14, 3, 14, 102, 25, 11, 11, 0)
s = 100: (0, 9, 20, 15, 12, 4, 22, 64, 18, 21, 12, 0)
s = 101: (0, 6, 30, 11, 11, 3, 20, 60, 34, 20, 7, 0)
s = 102: (0, 6, 19, 15, 11, 3, 18, 70, 20, 16, 9, 0)
s = 103: (0, 6, 26, 21, 12, 3, 28, 58, 24, 17, 6, 0)
s = 104: (0, 8, 33, 17, 16, 5, 13, 47, 21, 18, 7, 0)
s = 105: (0, 13, 23, 24, 12, 4, 18, 47, 43, 17, 7, 0)
s = 106: (0, 6, 24, 28, 16, 5, 20, 68, 32, 29, 11, 0)
s = 107: (0, 9, 36, 11, 10, 3, 14, 61, 23, 26, 12, 0)
s = 108: (0, 5, 19, 16, 10, 3, 16, 68, 24, 15, 7, 0)
s = 109: (0, 11, 22, 15, 9, 3, 15, 62, 39, 14, 11, 0)
s = 110: (0, 11, 17, 12, 8, 4, 26, 75, 31, 16, 11, 0)
s = 111: (0, 9, 23, 10, 14, 5, 21, 48, 37, 14, 6, 0)
s = 112: (0, 5, 26, 22, 8, 3, 28, 74, 28, 27, 8, 0)
s = 113: (0, 6, 16, 20, 15, 4, 15, 71, 40, 17, 9, 0)
s = 114: (0, 8, 21, 20, 8, 5, 24, 69, 21, 22, 5, 0)
s = 115: (0, 14, 33, 24, 11, 5, 16, 46, 44, 14, 6, 0)
s = 116: (0, 6, 21, 21, 13, 4, 16, 56, 46, 30, 10, 0)
s = 117: (0, 5, 19, 19, 12, 6, 32, 48, 32, 11, 6, 0)
s = 118: (0, 10, 14, 13, 15, 5, 13, 50, 33, 12, 9, 0)
s = 119: (0, 9, 13, 22, 12, 3, 19, 68, 19, 15, 6, 0)
s = 120: (0, 10, 20, 18, 9, 6, 18, 43, 26, 21, 8, 0)
s = 121: (0, 9, 24, 14, 11, 4, 15, 47, 52, 26, 7, 0)
s = 122: (0, 7, 16, 14, 9, 4, 17, 50, 36, 31, 9, 0)
s = 123: (0, 10, 30, 16, 12, 6, 12, 56, 23, 11, 8, 0)
s = 124: (0, 10, 17, 9, 7, 7, 20, 60, 25, 12, 11, 0)
s = 125: (0, 6, 15, 21, 11, 4, 10, 58, 39, 25, 7, 0)
s = 126: (0, 9, 23, 15, 10, 4, 13, 78, 28, 18, 10, 0)
s = 127: (0, 5, 30, 20, 10, 6, 17, 72, 37, 24, 13, 0)
s = 128: (0, 11, 14, 17, 9, 3, 25, 54, 36, 17, 7, 0)
s = 129: (0, 10, 22, 12, 13, 3, 24, 66, 21, 17, 7, 0)
s = 130: (0, 6, 36, 10, 7, 5, 33, 74, 21, 21, 8, 0)
s = 131: (0, 9, 25, 18, 8, 3, 17, 94, 35, 27, 5, 0)
s = 132: (0, 7, 26, 13, 11, 5, 17, 34, 23, 19, 10, 0)
s = 133: (0, 11, 19, 13, 9, 4, 25, 78, 38, 16, 6, 0)
s = 134: (0, 10, 33, 11, 16, 4, 24, 49, 24, 16, 5, 0)
s = 135: (0, 9, 15, 14, 14, 6, 12, 57, 28, 18, 8, 0)
s = 136: (0, 11, 34, 15, 15, 4, 14, 60, 34, 14, 8, 0)
s = 137: (0, 7, 31, 21, 10, 7, 24, 51, 29, 17, 7, 0)
s = 138: (0, 7, 20, 10, 14, 3, 21, 48, 16, 16, 7, 0)
s = 139: (0, 8, 25, 10, 11, 4, 20, 94, 24, 21, 6, 0)
s = 140: (0, 7, 24, 17, 11, 4, 27, 43, 29, 18, 6, 0)
s = 141: (0, 11, 24, 13, 12, 5, 21, 52, 36, 14, 9, 0)
s = 142: (0, 6, 18, 15, 12, 7, 13, 55, 41, 31, 6, 0)
s = 143: (0, 7, 27, 9, 16, 8, 19, 62, 17, 12, 11, 0)
s = 144: (0, 11, 18, 15, 17, 5, 18, 48, 37, 10, 9, 0)
s = 145: (0, 9, 22, 22, 10, 3, 25, 42, 22, 11, 5, 0)
s = 146: (0, 9, 28, 11, 15, 5, 17, 61, 34, 18, 6, 0)
s = 147: (0, 9, 28, 19, 11, 4, 18, 53, 41, 14, 6, 0)
s = 148: (0, 8, 24, 17, 11, 3, 14, 40, 24, 11, 7, 0)
s = 149: (0, 6, 29, 10, 13, 4, 16, 68, 39, 24, 5, 0)
s = 150: (0, 10, 32, 12, 9, 7, 18, 89, 29, 19, 12, 0)
s = 151: (0, 9, 37, 18, 16, 3, 16, 85, 18, 22, 9, 0)
s = 152: (0, 7, 19, 10, 11, 4, 18, 51, 45, 16, 7, 0)
s = 153: (0, 6, 20, 30, 13, 5, 27, 77, 21, 24, 7, 0)
s = 154: (0, 6, 24, 12, 13, 4, 16, 44, 22, 15, 8, 0)
s = 155: (0, 6, 24, 10, 13, 3, 14, 50, 26, 16, 5, 0)
s = 156: (0, 8, 24, 25, 9, 3, 20, 85, 22, 26, 12, 0)
s = 157: (0, 9, 19, 22, 11, 5, 33, 42, 21, 17, 9, 0)
s = 158: (0, 6, 24, 18, 16, 5, 11, 66, 22, 23, 8, 0)
s = 159: (0, 6, 19, 17, 13, 4, 19, 100, 23, 23, 7, 0)
s = 160: (0, 8, 20, 10, 13, 5, 18, 78, 28, 12, 9, 0)
s = 161: (0, 7, 38, 11, 17, 4, 12, 73, 27, 19, 8, 0)
s = 162: (0, 5, 14, 13, 14, 4, 20, 40, 37, 18, 9, 0)
s = 163: (0, 8, 35, 17, 11, 5, 16, 78, 28, 18, 12, 0)
s = 164: (0, 11, 34, 10, 12, 4, 19, 57, 33, 20, 8, 0)
s = 165: (0, 11, 36, 11, 12, 6, 22, 75, 35, 18, 11, 0)
s = 166: (0, 8, 28, 15, 12, 5, 22, 79, 35, 16, 10, 0)
s = 167: (0, 8, 25, 11, 10, 4, 11, 66, 29, 15, 11, 0)
s = 168: (0, 9, 36, 17, 16, 6, 25, 60, 29, 21, 12, 0)
s = 169: (0, 13, 18, 27, 17, 6, 12, 74, 43, 24, 6, 0)
s = 170: (0, 10, 23, 17, 14, 5, 25, 59, 26, 19, 8, 0)
s = 171: (0, 10, 23, 16, 14, 6, 27, 65, 19, 18, 6, 0)
s = 172: (0, 6, 23, 19, 13, 5, 18, 100, 29, 19, 9, 0)
s = 173: (0, 12, 25, 12, 18, 3, 11, 58, 29, 15, 5, 0)
s = 174: (0, 12, 24, 22, 23, 6, 11, 44, 28, 11, 12, 0)
s = 175: (0, 7, 21, 13, 11, 5, 12, 57, 20, 15, 6, 0)
s = 176: (0, 11, 33, 16, 10, 3, 12, 70, 41, 22, 5, 0)
s = 177: (0, 7, 14, 17, 14, 3, 11, 65, 37, 14, 6, 0)
s = 178: (0, 5, 25, 16, 19, 3, 33, 85, 48, 17, 11, 0)
s = 179: (0, 12, 26, 22, 12, 6, 17, 76, 22, 16, 6, 0)
s = 180: (0, 8, 20, 24, 16, 4, 13, 75, 21, 20, 6, 0)
s = 181: (0, 7, 25, 17, 17, 9, 12, 87, 42, 34, 8, 0)
s = 182: (0, 5, 27, 13, 14, 4, 26, 72, 32, 13, 8, 0)
s = 183: (0, 6, 24, 15, 11, 5, 18, 54, 22, 15, 10, 0)
s = 184: (0, 5, 40, 16, 18, 5, 16, 108, 24, 17, 8, 0)
s = 185: (0, 9, 21, 16, 11, 5, 11, 81, 41, 13, 5, 0)
s = 186: (0, 7, 18, 16, 16, 4, 16, 56, 20, 16, 6, 0)
s = 187: (0, 13, 20, 25, 10, 5, 19, 90, 26, 12, 7, 0)
s = 188: (0, 7, 18, 17, 12, 5, 22, 64, 29, 24, 9, 0)
s = 189: (0, 5, 28, 15, 9, 4, 18, 49, 29, 24, 7, 0)
s = 190: (0, 12, 32, 10, 20, 6, 18, 57, 29, 15, 12, 0)
s = 191: (0, 9, 22, 15, 10, 6, 17, 71, 27, 28, 7, 0)
s = 192: (0, 9, 17, 12, 12, 4, 17, 60, 23, 17, 8, 0)
s = 193: (0, 9, 36, 18, 18, 4, 12, 61, 34, 33, 6, 0)
s = 194: (0, 7, 14, 8, 12, 4, 21, 52, 28, 19, 9, 0)
s = 195: (0, 9, 18, 14, 13, 4, 15, 52, 42, 17, 9, 0)
s = 196: (0, 7, 37, 13, 8, 5, 22, 81, 27, 24, 5, 0)
s = 197: (0, 9, 39, 21, 9, 6, 26, 86, 21, 21, 8, 0)
s = 198: (0, 8, 21, 13, 17, 4, 30, 61, 32, 16, 6, 0)
s = 199: (0, 8, 24, 11, 12, 5, 13, 62, 16, 14, 7, 0)
s = 200: (0, 7, 22, 15, 10, 4, 20, 48, 32, 18, 6, 0)
------------------------------------------------------------------------
RESOURCE k = 3
s = 1: (0, 14, 28, 23, 8, 6, 23, 47, 26, 14, 15, 0)
s = 2: (0, 19, 34, 14, 6, 3, 36, 47, 31, 17, 20, 0)
s = 3: (0, 17, 34, 14, 11, 4, 42, 50, 21, 12, 16, 0)
s = 4: (0, 10, 19, 17, 7, 6, 18, 44, 19, 13, 19, 0)
s = 5: (0, 10, 40, 12, 9, 7, 25, 72, 22, 9, 18, 0)
s = 6: (0, 13, 25, 25, 9, 4, 27, 63, 20, 14, 16, 0)
s = 7: (0, 12, 34, 30, 8, 7, 44, 42, 19, 22, 15, 0)
s = 8: (0, 10, 20, 32, 10, 4, 29, 24, 26, 17, 16, 0)
s = 9: (0, 12, 22, 21, 12, 4, 36, 61, 16, 17, 11, 0)
s = 10: (0, 10, 39, 23, 8, 6, 22, 38, 17, 19, 11, 0)
s = 11: (0, 11, 32, 16, 15, 6, 42, 24, 18, 11, 16, 0)
s = 12: (0, 14, 40, 16, 8, 7, 30, 33, 21, 18, 14, 0)
s = 13: (0, 16, 16, 23, 6, 4, 20, 49, 18, 14, 18, 0)
s = 14: (0, 10, 30, 29, 8, 5, 25, 22, 26, 15, 19, 0)
s = 15: (0, 14, 40, 16, 8, 8, 18, 25, 20, 17, 16, 0)
s = 16: (0, 8, 19, 26, 12, 5, 44, 30, 20, 14, 20, 0)
s = 17: (0, 11, 37, 33, 6, 5, 24, 36, 20, 18, 13, 0)
s = 18: (0, 14, 49, 28, 10, 6, 17, 38, 14, 14, 22, 0)
s = 19: (0, 10, 49, 30, 13, 7, 26, 57, 23, 20, 14, 0)
s = 20: (0, 15, 17, 18, 7, 4, 29, 30, 18, 18, 19, 0)
s = 21: (0, 15, 29, 22, 10, 8, 39, 40, 17, 21, 21, 0)
s = 22: (0, 17, 41, 15, 8, 4, 30, 45, 26, 12, 12, 0)
s = 23: (0, 18, 22, 17, 8, 6, 33, 67, 21, 9, 16, 0)
s = 24: (0, 11, 36, 25, 7, 5, 18, 51, 14, 11, 10, 0)
s = 25: (0, 12, 25, 35, 10, 4, 30, 29, 23, 14, 15, 0)
s = 26: (0, 17, 22, 28, 10, 3, 26, 31, 28, 17, 13, 0)
s = 27: (0, 11, 32, 17, 11, 6, 19, 45, 17, 12, 16, 0)
s = 28: (0, 17, 42, 17, 6, 4, 20, 36, 34, 12, 20, 0)
s = 29: (0, 14, 38, 35, 5, 6, 22, 40, 19, 17, 15, 0)
s = 30: (0, 15, 18, 16, 8, 7, 37, 40, 13, 13, 15, 0)
s = 31: (0, 22, 24, 14, 8, 6, 19, 61, 20, 18, 17, 0)
s = 32: (0, 14, 41, 16, 13, 5, 16, 41, 16, 16, 22, 0)
s = 33: (0, 13, 31, 18, 12, 7, 25, 31, 15, 14, 10, 0)
s = 34: (0, 25, 31, 15, 10, 5, 35, 38, 11, 17, 17, 0)
s = 35: (0, 9, 26, 18, 10, 6, 28, 49, 13, 9, 17, 0)
s = 36: (0, 13, 28, 22, 6, 8, 38, 46, 23, 12, 13, 0)
s = 37: (0, 13, 34, 22, 11, 3, 41, 50, 17, 10, 15, 0)
s = 38: (0, 12, 22, 31, 12, 6, 23, 28, 21, 13, 19, 0)
s = 39: (0, 11, 41, 13, 7, 7, 25, 28, 14, 11, 17, 0)
s = 40: (0, 9, 43, 25, 11, 7, 26, 25, 18, 15, 15, 0)
s = 41: (0, 8, 33, 16, 9, 5, 34, 47, 18, 15, 15, 0)
s = 42: (0, 9, 35, 29, 9, 6, 25, 54, 14, 11, 13, 0)
s = 43: (0, 14, 20, 29, 5, 5, 34, 57, 15, 22, 15, 0)
s = 44: (0, 13, 28, 13, 8, 7, 30, 46, 19, 14, 16, 0)
s = 45: (0, 16, 27, 15, 9, 3, 28, 29, 18, 25, 12, 0)
s = 46: (0, 9, 42, 14, 7, 6, 19, 36, 15, 12, 16, 0)
s = 47: (0, 17, 43, 34, 6, 7, 26, 36, 17, 14, 15, 0)
s = 48: (0, 8, 23, 13, 5, 6, 16, 46, 29, 16, 13, 0)
s = 49: (0, 14, 24, 24, 13, 4, 21, 49, 16, 20, 13, 0)
s = 50: (0, 11, 39, 16, 9, 4, 30, 54, 19, 10, 15, 0)
s = 51: (0, 8, 24, 33, 11, 5, 27, 42, 18, 12, 17, 0)
s = 52: (0, 12, 30, 27, 7, 5, 22, 49, 19, 24, 16, 0)
s = 53: (0, 15, 27, 34, 9, 7, 24, 55, 30, 13, 17, 0)
s = 54: (0, 15, 36, 33, 8, 5, 20, 52, 24, 19, 14, 0)
s = 55: (0, 10, 38, 16, 5, 4, 22, 29, 20, 13, 12, 0)
s = 56: (0, 10, 32, 13, 5, 5, 16, 27, 17, 17, 12, 0)
s = 57: (0, 11, 46, 25, 8, 9, 34, 41, 29, 9, 13, 0)
s = 58: (0, 13, 40, 18, 6, 5, 34, 54, 13, 10, 12, 0)
s = 59: (0, 15, 23, 17, 9, 7, 22, 69, 20, 17, 14, 0)
s = 60: (0, 8, 34, 21, 6, 6, 17, 48, 22, 13, 13, 0)
s = 61: (0, 13, 31, 22, 6, 6, 25, 46, 13, 20, 14, 0)
s = 62: (0, 20, 18, 14, 6, 7, 40, 57, 13, 19, 14, 0)
s = 63: (0, 8, 35, 17, 5, 7, 38, 36, 24, 17, 20, 0)
s = 64: (0, 11, 19, 27, 14, 8, 32, 30, 15, 14, 16, 0)
s = 65: (0, 10, 29, 14, 10, 3, 17, 37, 13, 16, 17, 0)
s = 66: (0, 9, 17, 24, 5, 4, 22, 49, 20, 15, 15, 0)
s = 67: (0, 13, 23, 20, 8, 6, 27, 29, 15, 19, 18, 0)
s = 68: (0, 15, 28, 19, 10, 6, 42, 38, 20, 12, 13, 0)
s = 69: (0, 12, 38, 19, 8, 7, 30, 23, 22, 12, 13, 0)
s = 70: (0, 13, 38, 22, 10, 5, 31, 28, 16, 12, 15, 0)
s = 71: (0, 12, 38, 15, 9, 5, 34, 23, 23, 18, 12, 0)
s = 72: (0, 14, 17, 26, 9, 5, 38, 50, 21, 15, 13, 0)
s = 73: (0, 12, 26, 22, 7, 7, 20, 34, 27, 14, 16, 0)
s = 74: (0, 9, 31, 24, 10, 6, 26, 33, 21, 9, 21, 0)
s = 75: (0, 14, 23, 20, 7, 5, 31, 49, 26, 22, 15, 0)
s = 76: (0, 7, 26, 16, 10, 5, 31, 25, 14, 10, 14, 0)
s = 77: (0, 15, 34, 13, 8, 6, 21, 43, 27, 20, 12, 0)
s = 78: (0, 8, 54, 20, 9, 6, 30, 25, 23, 10, 11, 0)
s = 79: (0, 17, 37, 27, 9, 5, 22, 29, 38, 22, 16, 0)
s = 80: (0, 13, 27, 29, 12, 4, 33, 37, 28, 12, 13, 0)
s = 81: (0, 14, 22, 24, 15, 8, 29, 23, 17, 13, 19, 0)
s = 82: (0, 15, 29, 26, 11, 5, 18, 41, 29, 18, 19, 0)
s = 83: (0, 8, 49, 16, 6, 5, 24, 35, 20, 14, 11, 0)
s = 84: (0, 14, 25, 27, 8, 7, 20, 24, 21, 12, 18, 0)
s = 85: (0, 10, 35, 24, 8, 4, 30, 26, 28, 9, 25, 0)
s = 86: (0, 17, 24, 20, 7, 7, 17, 30, 21, 22, 18, 0)
s = 87: (0, 19, 24, 19, 5, 4, 27, 48, 27, 23, 9, 0)
s = 88: (0, 14, 42, 14, 10, 4, 21, 43, 21, 30, 12, 0)
s = 89: (0, 10, 34, 30, 10, 5, 19, 33, 23, 19, 16, 0)
s = 90: (0, 18, 30, 20, 11, 5, 34, 58, 14, 18, 18, 0)
s = 91: (0, 9, 35, 32, 12, 5, 17, 22, 35, 14, 24, 0)
s = 92: (0, 14, 20, 20, 8, 7, 37, 66, 15, 23, 13, 0)
s = 93: (0, 10, 22, 21, 9, 7, 18, 50, 25, 10, 13, 0)
s = 94: (0, 16, 31, 14, 12, 7, 35, 28, 14, 21, 21, 0)
s = 95: (0, 16, 28, 21, 14, 5, 34, 23, 25, 10, 16, 0)
s = 96: (0, 13, 44, 23, 13, 5, 27, 37, 14, 21, 18, 0)
s = 97: (0, 10, 26, 14, 12, 5, 27, 40, 29, 15, 14, 0)
s = 98: (0, 15, 28, 22, 9, 5, 38, 32, 22, 17, 21, 0)
s = 99: (0, 14, 28, 16, 9, 3, 20, 64, 18, 10, 22, 0)
s = 100: (0, 14, 25, 21, 8, 5, 32, 40, 13, 17, 24, 0)
s = 101: (0, 8, 37, 16, 7, 4, 30, 37, 24, 17, 14, 0)
s = 102: (0, 9, 23, 21, 8, 4, 27, 44, 14, 14, 17, 0)
s = 103: (0, 9, 33, 30, 8, 4, 42, 37, 17, 14, 12, 0)
s = 104: (0, 12, 42, 23, 11, 6, 19, 29, 15, 15, 13, 0)
s = 105: (0, 20, 29, 33, 8, 5, 27, 30, 30, 14, 13, 0)
s = 106: (0, 9, 30, 39, 11, 6, 30, 43, 22, 24, 21, 0)
s = 107: (0, 13, 45, 15, 7, 4, 21, 39, 16, 21, 23, 0)
s = 108: (0, 7, 23, 23, 7, 4, 24, 42, 17, 12, 14, 0)
s = 109: (0, 16, 27, 20, 6, 4, 23, 39, 27, 12, 22, 0)
s = 110: (0, 16, 22, 17, 5, 5, 39, 47, 22, 13, 22, 0)
s = 111: (0, 13, 29, 14, 10, 6, 31, 30, 26, 12, 11, 0)
s = 112: (0, 7, 33, 31, 6, 4, 42, 47, 20, 22, 16, 0)
s = 113: (0, 9, 20, 28, 10, 5, 22, 44, 28, 14, 18, 0)
s = 114: (0, 11, 27, 27, 6, 6, 35, 43, 15, 18, 10, 0)
s = 115: (0, 21, 41, 34, 8, 6, 24, 29, 31, 12, 11, 0)
s = 116: (0, 9, 27, 29, 9, 5, 24, 35, 32, 25, 19, 0)
s = 117: (0, 8, 24, 27, 8, 8, 48, 30, 23, 9, 12, 0)
s = 118: (0, 14, 18, 18, 10, 6, 19, 31, 24, 10, 17, 0)
s = 119: (0, 14, 16, 30, 8, 4, 28, 43, 14, 12, 12, 0)
s = 120: (0, 14, 25, 25, 6, 7, 26, 27, 18, 17, 16, 0)
s = 121: (0, 13, 29, 19, 8, 5, 22, 29, 36, 21, 14, 0)
s = 122: (0, 11, 20, 19, 6, 5, 25, 31, 26, 26, 17, 0)
s = 123: (0, 14, 37, 22, 8, 7, 17, 35, 17, 9, 15, 0)
s = 124: (0, 15, 21, 12, 5, 8, 29, 38, 18, 10, 21, 0)
s = 125: (0, 8, 19, 30, 7, 4, 15, 36, 27, 21, 13, 0)
s = 126: (0, 14, 29, 21, 7, 5, 20, 49, 20, 15, 19, 0)
s = 127: (0, 7, 37, 27, 7, 7, 26, 45, 26, 20, 26, 0)
s = 128: (0, 16, 17, 24, 6, 3, 37, 34, 25, 14, 14, 0)
s = 129: (0, 15, 27, 17, 9, 3, 35, 42, 15, 14, 13, 0)
s = 130: (0, 9, 44, 14, 5, 7, 49, 46, 15, 17, 16, 0)
s = 131: (0, 13, 31, 25, 6, 4, 25, 59, 24, 23, 9, 0)
s = 132: (0, 10, 33, 18, 8, 7, 26, 21, 17, 16, 19, 0)
s = 133: (0, 16, 23, 18, 6, 4, 37, 49, 27, 13, 12, 0)
s = 134: (0, 14, 41, 15, 11, 5, 35, 31, 17, 13, 10, 0)
s = 135: (0, 13, 18, 19, 9, 7, 18, 36, 20, 15, 16, 0)
s = 136: (0, 17, 42, 21, 10, 5, 20, 38, 24, 12, 16, 0)
s = 137: (0, 10, 39, 29, 7, 8, 36, 32, 21, 14, 14, 0)
s = 138: (0, 10, 25, 13, 10, 4, 32, 30, 11, 13, 14, 0)
s = 139: (0, 12, 31, 13, 7, 5, 30, 59, 17, 18, 12, 0)
s = 140: (0, 10, 30, 24, 8, 5, 40, 27, 20, 15, 12, 0)
s = 141: (0, 17, 29, 18, 8, 6, 32, 33, 25, 11, 17, 0)
s = 142: (0, 9, 22, 21, 8, 8, 20, 35, 29, 26, 11, 0)
s = 143: (0, 10, 34, 13, 11, 10, 28, 39, 12, 10, 22, 0)
s = 144: (0, 17, 22, 20, 11, 6, 27, 30, 26, 9, 17, 0)
s = 145: (0, 13, 28, 31, 7, 4, 37, 26, 15, 9, 9, 0)
s = 146: (0, 13, 34, 15, 10, 7, 26, 38, 24, 15, 12, 0)
s = 147: (0, 13, 35, 26, 7, 5, 27, 33, 29, 12, 11, 0)
s = 148: (0, 11, 30, 24, 7, 4, 21, 25, 17, 9, 13, 0)
s = 149: (0, 8, 37, 14, 9, 5, 24, 43, 27, 20, 10, 0)
s = 150: (0, 14, 40, 17, 6, 9, 27, 56, 20, 16, 23, 0)
s = 151: (0, 14, 46, 25, 11, 4, 24, 53, 13, 18, 18, 0)
s = 152: (0, 10, 23, 14, 8, 4, 27, 32, 32, 14, 13, 0)
s = 153: (0, 8, 25, 41, 9, 6, 40, 48, 15, 20, 14, 0)
s = 154: (0, 9, 30, 17, 9, 5, 24, 28, 15, 13, 16, 0)
s = 155: (0, 8, 30, 14, 9, 3, 20, 31, 19, 13, 9, 0)
s = 156: (0, 11, 30, 34, 6, 4, 30, 53, 15, 22, 23, 0)
s = 157: (0, 13, 24, 30, 8, 6, 50, 27, 15, 14, 17, 0)
s = 158: (0, 9, 29, 25, 11, 6, 16, 41, 16, 19, 15, 0)
s = 159: (0, 8, 24, 24, 9, 5, 28, 63, 17, 19, 14, 0)
s = 160: (0, 12, 25, 14, 9, 6, 27, 49, 19, 10, 17, 0)
s = 161: (0, 10, 47, 16, 12, 5, 18, 46, 19, 16, 16, 0)
s = 162: (0, 7, 17, 18, 9, 5, 30, 25, 26, 15, 17, 0)
s = 163: (0, 12, 44, 24, 7, 6, 24, 49, 20, 15, 23, 0)
s = 164: (0, 16, 43, 13, 8, 5, 28, 36, 23, 17, 15, 0)
s = 165: (0, 16, 45, 15, 8, 7, 33, 47, 25, 15, 21, 0)
s = 166: (0, 12, 35, 20, 8, 6, 32, 50, 25, 14, 19, 0)
s = 167: (0, 12, 31, 15, 7, 5, 16, 42, 20, 13, 22, 0)
s = 168: (0, 13, 45, 23, 11, 7, 37, 38, 20, 17, 23, 0)
s = 169: (0, 19, 23, 38, 11, 7, 18, 46, 30, 20, 11, 0)
s = 170: (0, 15, 28, 24, 10, 6, 38, 37, 19, 16, 16, 0)
s = 171: (0, 15, 28, 23, 9, 8, 41, 41, 13, 15, 12, 0)
s = 172: (0, 8, 29, 26, 9, 6, 27, 63, 20, 16, 18, 0)
s = 173: (0, 17, 31, 17, 12, 3, 16, 37, 21, 13, 10, 0)
s = 174: (0, 18, 30, 30, 15, 7, 17, 28, 20, 9, 23, 0)
s = 175: (0, 10, 26, 18, 8, 6, 18, 36, 14, 12, 12, 0)
s = 176: (0, 16, 41, 22, 7, 3, 18, 44, 29, 18, 9, 0)
s = 177: (0, 10, 17, 24, 10, 3, 16, 41, 26, 12, 11, 0)
s = 178: (0, 8, 31, 23, 13, 4, 50, 53, 33, 14, 21, 0)
s = 179: (0, 17, 32, 31, 8, 7, 25, 48, 16, 13, 12, 0)
s = 180: (0, 12, 25, 34, 11, 5, 19, 47, 15, 17, 12, 0)
s = 181: (0, 10, 31, 23, 12, 11, 18, 54, 30, 28, 15, 0)
s = 182: (0, 8, 33, 18, 10, 5, 38, 45, 22, 11, 16, 0)
s = 183: (0, 9, 30, 21, 7, 7, 27, 34, 16, 12, 19, 0)
s = 184: (0, 7, 50, 22, 12, 6, 23, 68, 17, 14, 16, 0)
s = 185: (0, 13, 26, 22, 8, 6, 16, 51, 29, 11, 9, 0)
s = 186: (0, 11, 23, 22, 11, 4, 24, 35, 14, 13, 12, 0)
s = 187: (0, 19, 25, 35, 7, 6, 28, 56, 18, 10, 14, 0)
s = 188: (0, 10, 22, 23, 8, 6, 33, 40, 20, 20, 17, 0)
s = 189: (0, 7, 34, 21, 6, 4, 27, 31, 20, 20, 13, 0)
s = 190: (0, 18, 39, 14, 14, 7, 27, 36, 20, 13, 24, 0)
s = 191: (0, 13, 27, 21, 7, 7, 26, 44, 19, 23, 14, 0)
s = 192: (0, 14, 21, 17, 8, 5, 25, 38, 16, 15, 16, 0)
s = 193: (0, 13, 45, 25, 12, 5, 18, 38, 24, 27, 12, 0)
s = 194: (0, 11, 17, 11, 8, 5, 31, 33, 20, 16, 17, 0)
s = 195: (0, 14, 22, 19, 9, 5, 22, 32, 29, 14, 18, 0)
s = 196: (0, 11, 46, 18, 6, 6, 32, 51, 19, 20, 10, 0)
s = 197: (0, 14, 49, 29, 6, 7, 38, 54, 15, 18, 16, 0)
s = 198: (0, 11, 26, 19, 12, 4, 44, 38, 23, 13, 11, 0)
s = 199: (0, 12, 30, 16, 8, 6, 20, 39, 12, 11, 13, 0)
s = 200: (0, 10, 28, 21, 7, 5, 30, 30, 23, 15, 11, 0)
************************************************************************
ES/LS-VALUES:
jobnr.   ES(i)    LS(i)
------------------------------------------------------------------------
  0        0        0
  1        0       70
  2        0       76
  3        0       61
  4        4       75
  5        7       79
  6        6       76
  7        6       67
  8       11       82
  9       20       82
 10        6       84
 11       26       88
************************************************************************
BIG-M-VALUES:
M1 = 82, M2 = 302
************************************************************************
